p cnf 20 29
9 11 13 -18 15 -14 -10 -3 0
-16 17 11 19 0
13 -12 5 7 -19 -18 0
-12 -10 -4 -19 -2 15 0
9 -2 0
1 15 0
11 -12 20 -18 0
17 -14 8 -7 -20 15 0
-4 13 0
17 3 5 0
-8 -14 -12 0
17 -6 -18 0
-14 3 0
17 5 6 -20 -2 0
13 6 -10 9 -19 0
5 6 -20 -4 15 0
-8 -6 7 0
-6 3 13 0
2 7 9 -5 -1 -17 0
16 -2 -8 -17 -18 15 0
1 -14 -4 0
-16 5 -10 0
-12 7 10 11 -1 0
16 2 -20 -9 0
9 -6 -4 0
1 -7 9 -20 13 0
-16 3 7 0
17 -6 -12 0
1 4 6 8 -5 -2 0
